data/solutions/recovery/degenerate/moderate/flexible/degenerate_moderate_instance36/25.sol
Elapsed time: 20.38
Upper bound: 1410256143.0
Planning weighted value: 51304346476.0
C[0]=1410256143.0
C[1]=1410203587.0
C[2]=1410069218.0
C[3]=1409474066.0
C[4]=0.0
y[0]=1
y[1]=3
y[2]=2
y[3]=2
y[4]=2
y[5]=1
y[6]=2
y[7]=2
y[8]=1
y[9]=2
y[10]=2
y[11]=2
y[12]=2
y[13]=0
y[14]=2
y[15]=3
y[16]=2
y[17]=2
y[18]=3
y[19]=2
y[20]=2
y[21]=1
y[22]=1
y[23]=2
y[24]=0
y[25]=1
y[26]=0
y[27]=2
y[28]=1
y[29]=2
y[30]=0
y[31]=3
y[32]=2
y[33]=0
y[34]=2
y[35]=3
y[36]=3
y[37]=2
y[38]=2
y[39]=0
y[40]=3
y[41]=2
y[42]=0
y[43]=2
y[44]=3
y[45]=1
