data/solutions/recovery/degenerate/moderate/flexible/degenerate_moderate_instance36/25.log

Log started (V12.6.3.0) Sat Apr 21 11:22:35 2018

New value for default parallel thread count: 1

Problem '/tmp/tmprEUPEH.pyomo.lp' read.
Read time = 0.00 sec. (0.11 ticks)

Problem name         : /tmp/tmprEUPEH.pyomo.lp
Objective sense      : Minimize
Variables            :     237  [Nneg: 1,  Binary: 230,  General Integer: 6]
Objective nonzeros   :       1
Linear constraints   :     104  [Less: 51,  Equal: 53]
  Nonzeros           :    7514
  RHS nonzeros       :      93

Variables            : Min LB: 0.000000         Max UB: 1.000000       
Objective nonzeros   : Min   : 1.000000         Max   : 1.000000       
Linear constraints   :
  Nonzeros           : Min   : 1.000000         Max   : 2.657465e+08   
  RHS nonzeros       : Min   : 1.000000         Max   : 5.000000       
Tried aggregator 1 time.
MIP Presolve eliminated 49 rows and 48 columns.
Reduced MIP has 55 rows, 189 columns, and 494 nonzeros.
Reduced MIP has 184 binaries, 5 generals, 0 SOSs, and 0 indicators.
Presolve time = 0.00 sec. (1.38 ticks)
Found incumbent of value 4.7271540e+09 after 0.00 sec. (1.62 ticks)
Probing time = 0.00 sec. (0.37 ticks)
Tried aggregator 1 time.
Reduced MIP has 55 rows, 189 columns, and 494 nonzeros.
Reduced MIP has 184 binaries, 5 generals, 0 SOSs, and 0 indicators.
Presolve time = 0.00 sec. (0.31 ticks)
Probing time = 0.00 sec. (0.37 ticks)
Clique table members: 46.
MIP emphasis: balance optimality and feasibility.
MIP search method: dynamic search.
Parallel mode: none, using 1 thread.
Root relaxation solution time = 0.00 sec. (0.75 ticks)

        Nodes                                         Cuts/
   Node  Left     Objective  IInf  Best Integer    Best Bound    ItCnt     Gap

*     0+    0                       4.72715e+09        0.0000           100.00%
      0     0   1.41000e+09    13   4.72715e+09   1.41000e+09      142   70.17%
      0     0   1.41000e+09    15   4.72715e+09      Fract: 1      148   70.17%
*     0+    0                       1.45513e+09   1.41000e+09             3.10%
*     0+    0                       1.43950e+09   1.41000e+09             2.05%
      0     2   1.41000e+09    12   1.43950e+09   1.41000e+09      148    2.05%
Elapsed time = 0.01 sec. (9.28 ticks, tree = 0.01 MB, solutions = 3)
*    40+   36                       1.43249e+09   1.41000e+09             1.57%
*   240+  160                       1.43069e+09   1.41000e+09             1.45%
*   290+  137                       1.41546e+09   1.41000e+09             0.39%
*   400+  191                       1.41509e+09   1.41000e+09             0.36%
*   697   306      integral     0   1.41501e+09   1.41000e+09     2137    0.35%
*  1069   472      integral     0   1.41399e+09   1.41000e+09     3285    0.28%
*  1178   477      integral     0   1.41379e+09   1.41000e+09     3585    0.27%
*  1650+  574                       1.41257e+09   1.41000e+09             0.18%
*  1680+  560                       1.41140e+09   1.41000e+09             0.10%
*  2077+  350                       1.41120e+09   1.41000e+09             0.09%
*  2177+  245                       1.41118e+09   1.41000e+09             0.08%
   2177   246   1.41000e+09     6   1.41118e+09   1.41000e+09     6852    0.08%
   2178   243        cutoff         1.41118e+09   1.41000e+09     6856    0.08%
   2179   244   1.41000e+09     8   1.41118e+09   1.41000e+09     6860    0.08%
   2180   241        cutoff         1.41118e+09   1.41000e+09     6865    0.08%
   2181   238        cutoff         1.41118e+09   1.41000e+09     6873    0.08%
   2182   239   1.41000e+09     6   1.41118e+09   1.41000e+09     6875    0.08%
   2183   239   1.41000e+09     5   1.41118e+09   1.41000e+09     6876    0.08%
   2184   239   1.41000e+09     5   1.41118e+09   1.41000e+09     6880    0.08%
   2185   239   1.41000e+09     4   1.41118e+09   1.41000e+09     6881    0.08%
   4077   483   1.41000e+09     6   1.41118e+09   1.41000e+09    11982    0.08%
Elapsed time = 1.08 sec. (976.95 ticks, tree = 0.14 MB, solutions = 14)
*  9566  1428      integral     0   1.41084e+09   1.41000e+09    26575    0.06%
* 11737+ 1500                       1.41067e+09   1.41000e+09             0.05%
  11737  1500        cutoff         1.41067e+09   1.41000e+09    32481    0.05%
  11738  1501   1.41000e+09     5   1.41067e+09   1.41000e+09    32482    0.05%
  11739  1502   1.41000e+09     6   1.41067e+09   1.41000e+09    32485    0.05%
  11740  1503   1.41000e+09     8   1.41067e+09   1.41000e+09    32491    0.05%
  11741  1504   1.41000e+09     6   1.41067e+09   1.41000e+09    32492    0.05%
  11742  1503        cutoff         1.41067e+09   1.41000e+09    32508    0.05%
  11743  1502        cutoff         1.41067e+09   1.41000e+09    32517    0.05%
  11744  1503   1.41000e+09     6   1.41067e+09   1.41000e+09    32520    0.05%
  11745  1504   1.41000e+09     8   1.41067e+09   1.41000e+09    32525    0.05%
  11746  1503        cutoff         1.41067e+09   1.41000e+09    32530    0.05%
Elapsed time = 2.16 sec. (1971.55 ticks, tree = 0.47 MB, solutions = 16)
  23262  1537   1.41000e+09     6   1.41067e+09   1.41000e+09    59999    0.05%
  23263  1538   1.41000e+09     6   1.41067e+09   1.41000e+09    60000    0.05%
  23264  1539   1.41000e+09     6   1.41067e+09   1.41000e+09    60002    0.05%
  23265  1538        cutoff         1.41067e+09   1.41000e+09    60008    0.05%
  23266  1537        cutoff         1.41067e+09   1.41000e+09    60012    0.05%
  23267  1536    infeasible         1.41067e+09   1.41000e+09    60012    0.05%
  23268  1537   1.41000e+09     6   1.41067e+09   1.41000e+09    60015    0.05%
  23269  1538   1.41000e+09     6   1.41067e+09   1.41000e+09    60016    0.05%
  23270  1539   1.41000e+09     6   1.41067e+09   1.41000e+09    60017    0.05%
  23271  1540   1.41000e+09     6   1.41067e+09   1.41000e+09    60018    0.05%
Elapsed time = 3.25 sec. (2925.94 ticks, tree = 0.49 MB, solutions = 16)
  33299  1817   1.41000e+09     6   1.41067e+09   1.41000e+09    82501    0.05%
  33300  1818   1.41000e+09     6   1.41067e+09   1.41000e+09    82502    0.05%
  33301  1819   1.41000e+09     6   1.41067e+09   1.41000e+09    82503    0.05%
  33302  1820   1.41000e+09     6   1.41067e+09   1.41000e+09    82504    0.05%
  33303  1819    infeasible         1.41067e+09   1.41000e+09    82504    0.05%
  33304  1820   1.41000e+09     6   1.41067e+09   1.41000e+09    82505    0.05%
  33305  1821   1.41000e+09     6   1.41067e+09   1.41000e+09    82507    0.05%
  33306  1820        cutoff         1.41067e+09   1.41000e+09    82516    0.05%
  33307  1819    infeasible         1.41067e+09   1.41000e+09    82516    0.05%
  33308  1820   1.41000e+09     6   1.41067e+09   1.41000e+09    82517    0.05%
Elapsed time = 4.36 sec. (3880.31 ticks, tree = 0.57 MB, solutions = 16)
* 43957  2219      integral     0   1.41054e+09   1.41000e+09   104357    0.04%
  43982  2238   1.41000e+09     8   1.41054e+09   1.41000e+09   104390    0.04%
  43983  2239   1.41000e+09     8   1.41054e+09   1.41000e+09   104391    0.04%
  43984  2240   1.41000e+09     6   1.41054e+09   1.41000e+09   104395    0.04%
  43985  2241   1.41000e+09     6   1.41054e+09   1.41000e+09   104397    0.04%
  43986  2242   1.41000e+09     6   1.41054e+09   1.41000e+09   104399    0.04%
  43987  2241        cutoff         1.41054e+09   1.41000e+09   104402    0.04%
  43988  2242   1.41000e+09     8   1.41054e+09   1.41000e+09   104406    0.04%
  43989  2243   1.41000e+09     8   1.41054e+09   1.41000e+09   104407    0.04%
  43990  2242        cutoff         1.41054e+09   1.41000e+09   104410    0.04%
  43991  2243   1.41000e+09     8   1.41054e+09   1.41000e+09   104414    0.04%
Elapsed time = 5.46 sec. (4834.46 ticks, tree = 0.76 MB, solutions = 17)
  54412  1778   1.41000e+09     6   1.41054e+09   1.41000e+09   127190    0.04%
  54413  1779   1.41000e+09     6   1.41054e+09   1.41000e+09   127191    0.04%
  54414  1780   1.41000e+09     6   1.41054e+09   1.41000e+09   127192    0.04%
  54415  1781   1.41000e+09     6   1.41054e+09   1.41000e+09   127193    0.04%
  54416  1782   1.41000e+09     6   1.41054e+09   1.41000e+09   127194    0.04%
  54417  1783   1.41000e+09     8   1.41054e+09   1.41000e+09   127196    0.04%
  54418  1784   1.41000e+09     6   1.41054e+09   1.41000e+09   127197    0.04%
  54419  1785   1.41000e+09     8   1.41054e+09   1.41000e+09   127199    0.04%
  54420  1784    infeasible         1.41054e+09   1.41000e+09   127199    0.04%
  54421  1783        cutoff         1.41054e+09   1.41000e+09   127205    0.04%
Elapsed time = 6.59 sec. (5788.48 ticks, tree = 0.64 MB, solutions = 17)
* 57794  1447      integral     0   1.41028e+09   1.41000e+09   134958    0.02%
  65853  1782   1.41000e+09     6   1.41028e+09   1.41000e+09   152502    0.02%
  65854  1781    infeasible         1.41028e+09   1.41000e+09   152502    0.02%
  65855  1780        cutoff         1.41028e+09   1.41000e+09   152507    0.02%
  65856  1779        cutoff         1.41028e+09   1.41000e+09   152513    0.02%
  65857  1778        cutoff         1.41028e+09   1.41000e+09   152516    0.02%
  65858  1779   1.41000e+09     6   1.41028e+09   1.41000e+09   152519    0.02%
  65859  1778    infeasible         1.41028e+09   1.41000e+09   152519    0.02%
  65860  1777    infeasible         1.41028e+09   1.41000e+09   152519    0.02%
  65861  1776        cutoff         1.41028e+09   1.41000e+09   152526    0.02%
  65862  1775        cutoff         1.41028e+09   1.41000e+09   152528    0.02%
Elapsed time = 7.68 sec. (6743.70 ticks, tree = 0.63 MB, solutions = 18)
  76875  2505   1.41000e+09     7   1.41028e+09   1.41000e+09   173917    0.02%
  76876  2506   1.41000e+09     8   1.41028e+09   1.41000e+09   173918    0.02%
  76877  2507   1.41000e+09     8   1.41028e+09   1.41000e+09   173919    0.02%
  76878  2508   1.41000e+09     6   1.41028e+09   1.41000e+09   173926    0.02%
  76879  2507        cutoff         1.41028e+09   1.41000e+09   173929    0.02%
  76880  2508   1.41000e+09     4   1.41028e+09   1.41000e+09   173935    0.02%
  76881  2509   1.41000e+09     4   1.41028e+09   1.41000e+09   173936    0.02%
  76882  2508        cutoff         1.41028e+09   1.41000e+09   173944    0.02%
  76883  2507    infeasible         1.41028e+09   1.41000e+09   173945    0.02%
  76884  2508   1.41000e+09     6   1.41028e+09   1.41000e+09   173948    0.02%
Elapsed time = 8.75 sec. (7698.12 ticks, tree = 0.84 MB, solutions = 18)
  89552   323   1.41000e+09     8   1.41028e+09   1.41000e+09   200592    0.02%
  89553   324   1.41000e+09     6   1.41028e+09   1.41000e+09   200594    0.02%
  89554   325   1.41000e+09     6   1.41028e+09   1.41000e+09   200595    0.02%
  89555   326   1.41000e+09     5   1.41028e+09   1.41000e+09   200596    0.02%
  89556   327   1.41000e+09     5   1.41028e+09   1.41000e+09   200597    0.02%
  89557   328   1.41000e+09     7   1.41028e+09   1.41000e+09   200601    0.02%
  89558   329   1.41000e+09     5   1.41028e+09   1.41000e+09   200602    0.02%
  89559   330   1.41000e+09     6   1.41028e+09   1.41000e+09   200603    0.02%
  89560   331   1.41000e+09     6   1.41028e+09   1.41000e+09   200604    0.02%
  89561   332   1.41000e+09     6   1.41028e+09   1.41000e+09   200605    0.02%
Elapsed time = 9.83 sec. (8652.59 ticks, tree = 0.22 MB, solutions = 18)
 102386  1046   1.41000e+09     6   1.41028e+09   1.41000e+09   226432    0.02%
 102387  1046   1.41000e+09     8   1.41028e+09   1.41000e+09   226435    0.02%
 102388  1047   1.41000e+09     6   1.41028e+09   1.41000e+09   226439    0.02%
 102389  1048   1.41000e+09     6   1.41028e+09   1.41000e+09   226441    0.02%
 102390  1049   1.41000e+09     6   1.41028e+09   1.41000e+09   226443    0.02%
 102391  1050   1.41000e+09     6   1.41028e+09   1.41000e+09   226444    0.02%
 102392  1051   1.41000e+09     6   1.41028e+09   1.41000e+09   226446    0.02%
 102393  1052   1.41000e+09     6   1.41028e+09   1.41000e+09   226447    0.02%
 102394  1053   1.41000e+09     6   1.41028e+09   1.41000e+09   226448    0.02%
*109033  1230      integral     0   1.41026e+09   1.41000e+09   238668    0.02%
 135033  1102        cutoff         1.41026e+09   1.41000e+09   296428    0.02%
Elapsed time = 14.31 sec. (12467.55 ticks, tree = 0.48 MB, solutions = 19)
 188915  1690   1.41000e+09     6   1.41026e+09   1.41000e+09   393916    0.02%
 188916  1691   1.41000e+09     6   1.41026e+09   1.41000e+09   393918    0.02%
 188917  1690        cutoff         1.41026e+09   1.41000e+09   393924    0.02%
 188918  1689    infeasible         1.41026e+09   1.41000e+09   393924    0.02%
 188919  1690   1.41000e+09     8   1.41026e+09   1.41000e+09   393926    0.02%
 188920  1689    infeasible         1.41026e+09   1.41000e+09   393926    0.02%
 188921  1688    infeasible         1.41026e+09   1.41000e+09   393926    0.02%
 188922  1687    infeasible         1.41026e+09   1.41000e+09   393926    0.02%
 188923  1686    infeasible         1.41026e+09   1.41000e+09   393926    0.02%
 188924  1685    infeasible         1.41026e+09   1.41000e+09   393926    0.02%
Elapsed time = 18.71 sec. (16282.53 ticks, tree = 0.68 MB, solutions = 19)

Cover cuts applied:  1
Mixed integer rounding cuts applied:  1
Gomory fractional cuts applied:  1

Root node processing (before b&c):
  Real time             =    0.01 sec. (9.30 ticks)
Sequential b&c:
  Real time             =   20.30 sec. (17680.47 ticks)
                          ------------
Total (root+branch&cut) =   20.31 sec. (17689.77 ticks)

Solution pool: 19 solutions saved.

MIP - Integer optimal, tolerance (0.0001/1e-06):  Objective =  1.4102561430e+09
Current MIP best bound =  1.4101158650e+09 (gap = 140278, 0.01%)
Solution time =   20.31 sec.  Iterations = 432352  Nodes = 206692 (874)
Deterministic time = 17689.77 ticks  (870.83 ticks/sec)


Incumbent solution written to file '/tmp/tmp79FgMR.cplex.sol'.
